1506
24 48 82 29 26 31 19 94 41 87 10 66 39 5 63 6 50 68 30 46 28 45 40 20 16 8 1 78 33 43 32 35 15 54 36 76 90 52 86 2 81 55 25 59 58 61 71 22 89 99 13 74 72 18 95 7 73 88 96 42 79 38 11 84 60 9 4 23 80 65 91 70 77 97 62 51 12 56 98 37 47 17 53 92 64 3 44 85 21 34 27 14 83 93 67 57 49 75 69 
